Route #1: 29 30 47 14 5 12 43 16 10 35 8 
Route #2: 15 18 48 17 24 13 
Route #3: 41 40 21 27 9 28 46 
Route #4: 42 3 11 34 22 31 25 
Route #5: 36 23 7 2 6 32 44 
Route #6: 33 39 20 26 4 38 37 
Route #7: 19 45 
cost 1133.51
